nNurses = 60;
nHours = 32;
minHours = 7;
maxHours = 9;
maxConsec = 7;
maxPresence = 22;
demand = [9, 6, 10, 11, 11, 13, 11, 7, 8, 11, 15, 13, 11, 13, 9, 7, 6, 8, 6, 9, 9, 8, 10, 9, 6, 8, 11, 6, 7, 8, 12, 11];
